20
587 233 220
76 52 46
66 59 31
62 55 44
95 46 36
63 59 35
100 37 32
91 54 37
49 44 36
109 66 49
69 48 27
109 85 62
48 47 42
77 67 48
112 79 76
102 40 28
106 99 65
86 73 50
79 76 57
61 56 39
100 86 30
thpack7_59